NAME : rnd39_20.tsp
TYPE : TSP
DIMENSION : 20
EDGE_WEIGHT_TYPE : EUC_2D
NODE_COORD_SECTION
0 869 633
1 535 834
2 894 177
3 847 454
4 523 760
5 208 498
6 381 716
7 299 24
8 13 303
9 581 102
10 54 134
11 969 485
12 476 703
13 744 906
14 810 227
15 190 342
16 169 734
17 363 454
18 499 89
19 655 190
